p tw 128 21121 2 
1 66 
1 67 
1 69 
1 71 
1 73 
1 75 
1 77 
1 80 
1 81 
1 83 
1 85 
1 87 
1 89 
1 91 
1 93 
1 95 
1 98 
1 100 
1 101 
1 104 
1 106 
1 108 
1 109 
1 111 
1 113 
1 115 
1 117 
1 119 
1 121 
1 123 
1 125 
1 128 
2 65 
2 68 
2 70 
2 72 
2 74 
2 76 
2 78 
2 79 
2 82 
2 84 
2 86 
2 88 
2 90 
2 92 
2 94 
2 96 
2 97 
2 99 
2 102 
2 103 
2 105 
2 107 
2 110 
2 112 
2 114 
2 116 
2 118 
2 120 
2 122 
2 124 
2 126 
2 127 
3 4 
3 66 
3 68 
3 70 
3 71 
3 74 
3 76 
3 78 
3 80 
3 81 
3 83 
3 86 
3 88 
3 89 
3 92 
3 94 
3 95 
3 98 
3 100 
3 101 
3 104 
3 106 
3 108 
3 109 
3 112 
3 114 
3 116 
3 117 
3 120 
3 122 
3 124 
3 126 
3 128 
4 65 
4 67 
4 69 
4 72 
4 73 
4 75 
4 77 
4 79 
4 82 
4 84 
4 85 
4 87 
4 90 
4 91 
4 93 
4 96 
4 97 
4 99 
4 102 
4 103 
4 105 
4 107 
4 110 
4 111 
4 113 
4 115 
4 118 
4 119 
4 121 
4 123 
4 125 
4 127 
5 6 
5 66 
5 67 
5 69 
5 72 
5 74 
5 76 
5 78 
5 80 
5 82 
5 84 
5 85 
5 87 
5 90 
5 92 
5 94 
5 96 
5 98 
5 100 
5 102 
5 104 
5 106 
5 108 
5 110 
5 112 
5 113 
5 115 
5 118 
5 120 
5 121 
5 124 
5 125 
5 128 
6 65 
6 68 
6 70 
6 71 
6 73 
6 75 
6 77 
6 79 
6 81 
6 83 
6 86 
6 88 
6 89 
6 91 
6 93 
6 95 
6 97 
6 99 
6 101 
6 103 
6 105 
6 107 
6 109 
6 111 
6 114 
6 116 
6 117 
6 119 
6 122 
6 123 
6 126 
6 127 
7 8 
7 65 
7 67 
7 70 
7 72 
7 73 
7 76 
7 78 
7 80 
7 81 
7 83 
7 86 
7 87 
7 90 
7 92 
7 93 
7 95 
7 97 
7 100 
7 102 
7 104 
7 106 
7 107 
7 109 
7 111 
7 113 
7 116 
7 118 
7 119 
7 121 
7 124 
7 126 
7 127 
8 66 
8 68 
8 69 
8 71 
8 74 
8 75 
8 77 
8 79 
8 82 
8 84 
8 85 
8 88 
8 89 
8 91 
8 94 
8 96 
8 98 
8 99 
8 101 
8 103 
8 105 
8 108 
8 110 
8 112 
8 114 
8 115 
8 117 
8 120 
8 122 
8 123 
8 125 
8 128 
9 10 
9 66 
9 67 
9 70 
9 72 
9 73 
9 75 
9 77 
9 80 
9 82 
9 84 
9 85 
9 87 
9 89 
9 92 
9 93 
9 95 
9 97 
9 99 
9 101 
9 104 
9 105 
9 107 
9 109 
9 112 
9 114 
9 115 
9 118 
9 120 
9 122 
9 124 
9 126 
9 128 
10 65 
10 68 
10 69 
10 71 
10 74 
10 76 
10 78 
10 79 
10 81 
10 83 
10 86 
10 88 
10 90 
10 91 
10 94 
10 96 
10 98 
10 100 
10 102 
10 103 
10 106 
10 108 
10 110 
10 111 
10 113 
10 116 
10 117 
10 119 
10 121 
10 123 
10 125 
10 127 
11 12 
11 66 
11 67 
11 69 
11 71 
11 73 
11 75 
11 78 
11 80 
11 81 
11 84 
11 86 
11 88 
11 90 
11 91 
11 94 
11 96 
11 97 
11 99 
11 102 
11 104 
11 105 
11 108 
11 109 
11 111 
11 113 
11 115 
11 117 
11 120 
11 122 
11 124 
11 126 
11 127 
12 65 
12 68 
12 70 
12 72 
12 74 
12 76 
12 77 
12 79 
12 82 
12 83 
12 85 
12 87 
12 89 
12 92 
12 93 
12 95 
12 98 
12 100 
12 101 
12 103 
12 106 
12 107 
12 110 
12 112 
12 114 
12 116 
12 118 
12 119 
12 121 
12 123 
12 125 
12 128 
13 14 
13 66 
13 68 
13 70 
13 71 
13 74 
13 75 
13 77 
13 79 
13 81 
13 84 
13 85 
13 88 
13 89 
13 92 
13 93 
13 96 
13 97 
13 100 
13 102 
13 104 
13 105 
13 108 
13 109 
13 112 
13 113 
13 116 
13 118 
13 119 
13 121 
13 124 
13 125 
13 127 
14 65 
14 67 
14 69 
14 72 
14 73 
14 76 
14 78 
14 80 
14 82 
14 83 
14 86 
14 87 
14 90 
14 91 
14 94 
14 95 
14 98 
14 99 
14 101 
14 103 
14 106 
14 107 
14 110 
14 111 
14 114 
14 115 
14 117 
14 120 
14 122 
14 123 
14 126 
14 128 
15 16 
15 65 
15 67 
15 69 
15 71 
15 73 
15 75 
15 78 
15 80 
15 82 
15 84 
15 86 
15 88 
15 89 
15 92 
15 93 
15 96 
15 97 
15 100 
15 101 
15 104 
15 106 
15 107 
15 110 
15 112 
15 114 
15 116 
15 117 
15 120 
15 121 
15 123 
15 125 
15 127 
16 66 
16 68 
16 70 
16 72 
16 74 
16 76 
16 77 
16 79 
16 81 
16 83 
16 85 
16 87 
16 90 
16 91 
16 94 
16 95 
16 98 
16 99 
16 102 
16 103 
16 105 
16 108 
16 109 
16 111 
16 113 
16 115 
16 118 
16 119 
16 122 
16 124 
16 126 
16 128 
17 18 
17 66 
17 68 
17 69 
17 72 
17 73 
17 76 
17 78 
17 80 
17 82 
17 83 
17 85 
17 88 
17 89 
17 91 
17 94 
17 95 
17 97 
17 99 
17 101 
17 104 
17 105 
17 108 
17 110 
17 112 
17 113 
17 116 
17 118 
17 119 
17 121 
17 123 
17 126 
17 127 
18 65 
18 67 
18 70 
18 71 
18 74 
18 75 
18 77 
18 79 
18 81 
18 84 
18 86 
18 87 
18 90 
18 92 
18 93 
18 96 
18 98 
18 100 
18 102 
18 103 
18 106 
18 107 
18 109 
18 111 
18 114 
18 115 
18 117 
18 120 
18 122 
18 124 
18 125 
18 128 
19 20 
19 66 
19 68 
19 69 
19 72 
19 73 
19 76 
19 78 
19 79 
19 81 
19 83 
19 85 
19 88 
19 89 
19 92 
19 93 
19 96 
19 97 
19 99 
19 102 
19 104 
19 106 
19 107 
19 110 
19 111 
19 114 
19 115 
19 117 
19 119 
19 122 
19 124 
19 125 
19 128 
20 65 
20 67 
20 70 
20 71 
20 74 
20 75 
20 77 
20 80 
20 82 
20 84 
20 86 
20 87 
20 90 
20 91 
20 94 
20 95 
20 98 
20 100 
20 101 
20 103 
20 105 
20 108 
20 109 
20 112 
20 113 
20 116 
20 118 
20 120 
20 121 
20 123 
20 126 
20 127 
21 22 
21 65 
21 68 
21 70 
21 71 
21 73 
21 75 
21 78 
21 80 
21 81 
21 83 
21 85 
21 87 
21 89 
21 91 
21 93 
21 96 
21 98 
21 99 
21 102 
21 103 
21 106 
21 108 
21 110 
21 112 
21 114 
21 115 
21 118 
21 120 
21 121 
21 124 
21 126 
21 127 
22 66 
22 67 
22 69 
22 72 
22 74 
22 76 
22 77 
22 79 
22 82 
22 84 
22 86 
22 88 
22 90 
22 92 
22 94 
22 95 
22 97 
22 100 
22 101 
22 104 
22 105 
22 107 
22 109 
22 111 
22 113 
22 116 
22 117 
22 119 
22 122 
22 123 
22 125 
22 128 
23 24 
23 66 
23 67 
23 70 
23 71 
23 73 
23 76 
23 77 
23 79 
23 81 
23 84 
23 85 
23 88 
23 90 
23 91 
23 94 
23 95 
23 98 
23 99 
23 101 
23 104 
23 106 
23 107 
23 110 
23 111 
23 114 
23 116 
23 118 
23 120 
23 121 
23 124 
23 125 
23 127 
24 65 
24 68 
24 69 
24 72 
24 74 
24 75 
24 78 
24 80 
24 82 
24 83 
24 86 
24 87 
24 89 
24 92 
24 93 
24 96 
24 97 
24 100 
24 102 
24 103 
24 105 
24 108 
24 109 
24 112 
24 113 
24 115 
24 117 
24 119 
24 122 
24 123 
24 126 
24 128 
25 26 
25 65 
25 67 
25 70 
25 72 
25 74 
25 76 
25 78 
25 80 
25 81 
25 84 
25 85 
25 88 
25 89 
25 91 
25 93 
25 96 
25 97 
25 99 
25 101 
25 103 
25 106 
25 108 
25 109 
25 111 
25 113 
25 116 
25 118 
25 120 
25 122 
25 123 
25 125 
25 128 
26 66 
26 68 
26 69 
26 71 
26 73 
26 75 
26 77 
26 79 
26 82 
26 83 
26 86 
26 87 
26 90 
26 92 
26 94 
26 95 
26 98 
26 100 
26 102 
26 104 
26 105 
26 107 
26 110 
26 112 
26 114 
26 115 
26 117 
26 119 
26 121 
26 124 
26 126 
26 127 
27 28 
27 66 
27 67 
27 70 
27 72 
27 73 
27 75 
27 78 
27 79 
27 82 
27 83 
27 86 
27 88 
27 89 
27 91 
27 94 
27 96 
27 98 
27 100 
27 101 
27 103 
27 106 
27 107 
27 109 
27 112 
27 113 
27 115 
27 118 
27 119 
27 122 
27 124 
27 125 
27 127 
28 65 
28 68 
28 69 
28 71 
28 74 
28 76 
28 77 
28 80 
28 81 
28 84 
28 85 
28 87 
28 90 
28 92 
28 93 
28 95 
28 97 
28 99 
28 102 
28 104 
28 105 
28 108 
28 110 
28 111 
28 114 
28 116 
28 117 
28 120 
28 121 
28 123 
28 126 
28 128 
29 30 
29 65 
29 68 
29 70 
29 72 
29 74 
29 75 
29 78 
29 80 
29 81 
29 84 
29 86 
29 88 
29 90 
29 91 
29 93 
29 95 
29 98 
29 99 
29 101 
29 104 
29 105 
29 107 
29 110 
29 112 
29 113 
29 115 
29 117 
29 119 
29 121 
29 124 
29 125 
29 128 
30 66 
30 67 
30 69 
30 71 
30 73 
30 76 
30 77 
30 79 
30 82 
30 83 
30 85 
30 87 
30 89 
30 92 
30 94 
30 96 
30 97 
30 100 
30 102 
30 103 
30 106 
30 108 
30 109 
30 111 
30 114 
30 116 
30 118 
30 120 
30 122 
30 123 
30 126 
30 127 
31 32 
31 66 
31 68 
31 70 
31 72 
31 73 
31 75 
31 77 
31 80 
31 82 
31 84 
31 86 
31 88 
31 90 
31 91 
31 93 
31 96 
31 98 
31 100 
31 102 
31 104 
31 106 
31 108 
31 110 
31 111 
31 114 
31 116 
31 118 
31 119 
31 122 
31 123 
31 126 
31 128 
32 65 
32 67 
32 69 
32 71 
32 74 
32 76 
32 78 
32 79 
32 81 
32 83 
32 85 
32 87 
32 89 
32 92 
32 94 
32 95 
32 97 
32 99 
32 101 
32 103 
32 105 
32 107 
32 109 
32 112 
32 113 
32 115 
32 117 
32 120 
32 121 
32 124 
32 125 
32 127 
33 34 
33 65 
33 68 
33 69 
33 72 
33 73 
33 76 
33 77 
33 79 
33 82 
33 84 
33 86 
33 87 
33 89 
33 91 
33 93 
33 95 
33 98 
33 99 
33 102 
33 104 
33 106 
33 108 
33 109 
33 112 
33 113 
33 116 
33 117 
33 120 
33 122 
33 124 
33 125 
33 127 
34 66 
34 67 
34 70 
34 71 
34 74 
34 75 
34 78 
34 80 
34 81 
34 83 
34 85 
34 88 
34 90 
34 92 
34 94 
34 96 
34 97 
34 100 
34 101 
34 103 
34 105 
34 107 
34 110 
34 111 
34 114 
34 115 
34 118 
34 119 
34 121 
34 123 
34 126 
34 128 
35 36 
35 66 
35 68 
35 69 
35 72 
35 74 
35 75 
35 77 
35 80 
35 82 
35 83 
35 85 
35 88 
35 90 
35 92 
35 93 
35 96 
35 98 
35 99 
35 101 
35 103 
35 106 
35 107 
35 109 
35 111 
35 113 
35 116 
35 117 
35 120 
35 121 
35 124 
35 126 
35 127 
36 65 
36 67 
36 70 
36 71 
36 73 
36 76 
36 78 
36 79 
36 81 
36 84 
36 86 
36 87 
36 89 
36 91 
36 94 
36 95 
36 97 
36 100 
36 102 
36 104 
36 105 
36 108 
36 110 
36 112 
36 114 
36 115 
36 118 
36 119 
36 122 
36 123 
36 125 
36 128 
37 38 
37 65 
37 67 
37 70 
37 72 
37 73 
37 76 
37 77 
37 79 
37 81 
37 83 
37 85 
37 88 
37 90 
37 92 
37 93 
37 96 
37 98 
37 100 
37 101 
37 104 
37 105 
37 108 
37 110 
37 112 
37 113 
37 115 
37 117 
37 120 
37 122 
37 123 
37 126 
37 127 
38 66 
38 68 
38 69 
38 71 
38 74 
38 75 
38 78 
38 80 
38 82 
38 84 
38 86 
38 87 
38 89 
38 91 
38 94 
38 95 
38 97 
38 99 
38 102 
38 103 
38 106 
38 107 
38 109 
38 111 
38 114 
38 116 
38 118 
38 119 
38 121 
38 124 
38 125 
38 128 
39 40 
39 66 
39 68 
39 70 
39 72 
39 73 
39 76 
39 77 
39 80 
39 81 
39 84 
39 86 
39 87 
39 90 
39 92 
39 94 
39 96 
39 97 
39 99 
39 101 
39 103 
39 106 
39 108 
39 109 
39 112 
39 114 
39 115 
39 117 
39 119 
39 121 
39 123 
39 125 
39 127 
40 65 
40 67 
40 69 
40 71 
40 74 
40 75 
40 78 
40 79 
40 82 
40 83 
40 85 
40 88 
40 89 
40 91 
40 93 
40 95 
40 98 
40 100 
40 102 
40 104 
40 105 
40 107 
40 110 
40 111 
40 113 
40 116 
40 118 
40 120 
40 122 
40 124 
40 126 
40 128 
41 42 
41 66 
41 67 
41 69 
41 72 
41 73 
41 75 
41 78 
41 79 
41 81 
41 83 
41 86 
41 88 
41 90 
41 92 
41 93 
41 95 
41 98 
41 99 
41 102 
41 103 
41 105 
41 108 
41 109 
41 112 
41 114 
41 116 
41 118 
41 120 
41 121 
41 123 
41 125 
41 128 
42 65 
42 68 
42 70 
42 71 
42 74 
42 76 
42 77 
42 80 
42 82 
42 84 
42 85 
42 87 
42 89 
42 91 
42 94 
42 96 
42 97 
42 100 
42 101 
42 104 
42 106 
42 107 
42 110 
42 111 
42 113 
42 115 
42 117 
42 119 
42 122 
42 124 
42 126 
42 127 
43 44 
43 66 
43 67 
43 70 
43 71 
43 73 
43 76 
43 78 
43 79 
43 82 
43 84 
43 86 
43 87 
43 89 
43 92 
43 93 
43 96 
43 98 
43 99 
43 101 
43 103 
43 105 
43 108 
43 110 
43 111 
43 113 
43 116 
43 117 
43 119 
43 121 
43 124 
43 126 
43 128 
44 65 
44 68 
44 69 
44 72 
44 74 
44 75 
44 77 
44 80 
44 81 
44 83 
44 85 
44 88 
44 90 
44 91 
44 94 
44 95 
44 97 
44 100 
44 102 
44 104 
44 106 
44 107 
44 109 
44 112 
44 114 
44 115 
44 118 
44 120 
44 122 
44 123 
44 125 
44 127 
45 46 
45 66 
45 67 
45 70 
45 72 
45 74 
45 76 
45 77 
45 80 
45 82 
45 83 
45 86 
45 88 
45 89 
45 91 
45 93 
45 95 
45 97 
45 100 
45 102 
45 103 
45 105 
45 108 
45 110 
45 111 
45 114 
45 115 
45 117 
45 120 
45 121 
45 124 
45 125 
45 127 
46 65 
46 68 
46 69 
46 71 
46 73 
46 75 
46 78 
46 79 
46 81 
46 84 
46 85 
46 87 
46 90 
46 92 
46 94 
46 96 
46 98 
46 99 
46 101 
46 104 
46 106 
46 107 
46 109 
46 112 
46 113 
46 116 
46 118 
46 119 
46 122 
46 123 
46 126 
46 128 
47 48 
47 66 
47 67 
47 69 
47 71 
47 74 
47 76 
47 77 
47 80 
47 81 
47 84 
47 86 
47 88 
47 89 
47 92 
47 93 
47 95 
47 98 
47 99 
47 102 
47 103 
47 106 
47 107 
47 110 
47 112 
47 113 
47 115 
47 118 
47 119 
47 122 
47 123 
47 126 
47 127 
48 65 
48 68 
48 70 
48 72 
48 73 
48 75 
48 78 
48 79 
48 82 
48 83 
48 85 
48 87 
48 90 
48 91 
48 94 
48 96 
48 97 
48 100 
48 101 
48 104 
48 105 
48 108 
48 109 
48 111 
48 114 
48 116 
48 117 
48 120 
48 121 
48 124 
48 125 
48 128 
49 50 
49 65 
49 67 
49 69 
49 72 
49 74 
49 75 
49 77 
49 80 
49 81 
49 83 
49 86 
49 87 
49 89 
49 92 
49 94 
49 96 
49 98 
49 99 
49 101 
49 104 
49 105 
49 108 
49 110 
49 111 
49 114 
49 116 
49 118 
49 119 
49 122 
49 124 
49 125 
49 127 
50 66 
50 68 
50 70 
50 71 
50 73 
50 76 
50 78 
50 79 
50 82 
50 84 
50 85 
50 88 
50 90 
50 91 
50 93 
50 95 
50 97 
50 100 
50 102 
50 103 
50 106 
50 107 
50 109 
50 112 
50 113 
50 115 
50 117 
50 120 
50 121 
50 123 
50 126 
50 128 
51 52 
51 65 
51 67 
51 69 
51 71 
51 74 
51 76 
51 77 
51 79 
51 82 
51 83 
51 86 
51 88 
51 90 
51 91 
51 93 
51 96 
51 97 
51 99 
51 101 
51 104 
51 106 
51 108 
51 109 
51 112 
51 114 
51 115 
51 118 
51 119 
51 121 
51 124 
51 126 
51 128 
52 66 
52 68 
52 70 
52 72 
52 73 
52 75 
52 78 
52 80 
52 81 
52 84 
52 85 
52 87 
52 89 
52 92 
52 94 
52 95 
52 98 
52 100 
52 102 
52 103 
52 105 
52 107 
52 110 
52 111 
52 113 
52 116 
52 117 
52 120 
52 122 
52 123 
52 125 
52 127 
53 54 
53 65 
53 68 
53 69 
53 72 
53 73 
53 75 
53 77 
53 79 
53 81 
53 84 
53 86 
53 88 
53 89 
53 92 
53 94 
53 95 
53 97 
53 100 
53 101 
53 103 
53 106 
53 108 
53 110 
53 111 
53 113 
53 115 
53 118 
53 120 
53 121 
53 124 
53 126 
53 128 
54 66 
54 67 
54 70 
54 71 
54 74 
54 76 
54 78 
54 80 
54 82 
54 83 
54 85 
54 87 
54 90 
54 91 
54 93 
54 96 
54 98 
54 99 
54 102 
54 104 
54 105 
54 107 
54 109 
54 112 
54 114 
54 116 
54 117 
54 119 
54 122 
54 123 
54 125 
54 127 
55 56 
55 65 
55 67 
55 70 
55 72 
55 74 
55 75 
55 78 
55 79 
55 82 
55 84 
55 85 
55 88 
55 89 
55 92 
55 94 
55 95 
55 98 
55 99 
55 102 
55 104 
55 106 
55 108 
55 109 
55 111 
55 114 
55 115 
55 117 
55 119 
55 121 
55 123 
55 126 
55 127 
56 66 
56 68 
56 69 
56 71 
56 73 
56 76 
56 77 
56 80 
56 81 
56 83 
56 86 
56 87 
56 90 
56 91 
56 93 
56 96 
56 97 
56 100 
56 101 
56 103 
56 105 
56 107 
56 110 
56 112 
56 113 
56 116 
56 118 
56 120 
56 122 
56 124 
56 125 
56 128 
57 58 
57 66 
57 67 
57 69 
57 72 
57 74 
57 75 
57 78 
57 79 
57 81 
57 84 
57 85 
57 87 
57 90 
57 91 
57 93 
57 95 
57 97 
57 100 
57 101 
57 103 
57 106 
57 108 
57 110 
57 112 
57 114 
57 116 
57 117 
57 119 
57 122 
57 124 
57 126 
57 127 
58 65 
58 68 
58 70 
58 71 
58 73 
58 76 
58 77 
58 80 
58 82 
58 83 
58 86 
58 88 
58 89 
58 92 
58 94 
58 96 
58 98 
58 99 
58 102 
58 104 
58 105 
58 107 
58 109 
58 111 
58 113 
58 115 
58 118 
58 120 
58 121 
58 123 
58 125 
58 128 
59 60 
59 66 
59 68 
59 69 
59 72 
59 74 
59 76 
59 78 
59 79 
59 81 
59 84 
59 86 
59 87 
59 89 
59 91 
59 93 
59 96 
59 98 
59 100 
59 101 
59 104 
59 105 
59 107 
59 109 
59 111 
59 114 
59 115 
59 118 
59 120 
59 121 
59 123 
59 126 
59 127 
60 65 
60 67 
60 70 
60 71 
60 73 
60 75 
60 77 
60 80 
60 82 
60 83 
60 85 
60 88 
60 90 
60 92 
60 94 
60 95 
60 97 
60 99 
60 102 
60 103 
60 106 
60 108 
60 110 
60 112 
60 113 
60 116 
60 117 
60 119 
60 122 
60 124 
60 125 
60 128 
61 62 
61 66 
61 68 
61 70 
61 71 
61 74 
61 75 
61 78 
61 79 
61 82 
61 83 
61 86 
61 87 
61 90 
61 92 
61 93 
61 95 
61 97 
61 99 
61 101 
61 104 
61 106 
61 108 
61 110 
61 111 
61 113 
61 115 
61 118 
61 120 
61 122 
61 123 
61 125 
61 127 
62 65 
62 67 
62 69 
62 72 
62 73 
62 76 
62 77 
62 80 
62 81 
62 84 
62 85 
62 88 
62 89 
62 91 
62 94 
62 96 
62 98 
62 100 
62 102 
62 103 
62 105 
62 107 
62 109 
62 112 
62 114 
62 116 
62 117 
62 119 
62 121 
62 124 
62 126 
62 128 
63 64 
63 65 
63 68 
63 69 
63 71 
63 73 
63 76 
63 78 
63 80 
63 82 
63 84 
63 85 
63 88 
63 90 
63 92 
63 93 
63 95 
63 98 
63 100 
63 101 
63 103 
63 105 
63 108 
63 109 
63 111 
63 114 
63 115 
63 118 
63 119 
63 122 
63 124 
63 125 
63 127 
64 66 
64 67 
64 70 
64 72 
64 74 
64 75 
64 77 
64 79 
64 81 
64 83 
64 86 
64 87 
64 89 
64 91 
64 94 
64 96 
64 97 
64 99 
64 102 
64 104 
64 106 
64 107 
64 110 
64 112 
64 113 
64 116 
64 117 
64 120 
64 121 
64 123 
64 126 
64 128 
65 66 
67 68 
69 70 
71 72 
73 74 
75 76 
77 78 
79 80 
81 82 
83 84 
85 86 
87 88 
89 90 
91 92 
93 94 
95 96 
97 98 
99 100 
101 102 
103 104 
105 106 
107 108 
109 110 
111 112 
113 114 
115 116 
117 118 
119 120 
121 122 
123 124 
125 126 
127 128 
